cluster_editing/exact/simple_reductions/graphs/exact179.gr
p cep 330 1370
1 2
1 3
1 4
1 5
1 6
1 7
1 8
1 9
1 21
1 22
1 23
1 24
1 25
1 26
1 27
1 28
1 29
1 30
1 31
1 32
1 33
1 34
1 35
1 36
1 37
1 38
1 39
1 40
1 41
1 42
1 43
2 3
2 4
2 5
2 6
2 7
2 8
2 9
2 10
2 20
2 21
2 22
2 23
2 24
2 25
2 26
2 27
2 28
2 29
2 30
2 31
2 32
2 33
2 34
2 35
2 36
2 37
2 38
2 39
2 40
2 41
2 42
2 43
3 4
3 5
3 6
3 7
3 8
3 9
3 10
3 28
3 29
3 30
3 31
3 32
3 33
3 34
3 35
3 36
3 37
3 38
3 39
3 40
3 41
3 42
3 43
4 5
4 6
4 7
4 8
4 9
4 10
4 28
4 29
4 30
4 31
4 32
4 33
4 34
4 35
4 36
4 37
4 38
4 39
4 40
4 41
4 42
4 43
5 6
5 7
5 8
5 9
5 10
5 29
5 30
5 31
5 32
5 33
5 34
5 35
5 36
5 37
5 38
5 39
5 40
5 41
5 42
5 43
6 7
6 8
6 9
6 10
6 29
6 30
6 31
6 32
6 33
6 34
6 35
6 36
6 37
6 38
6 39
6 40
6 41
6 42
6 43
7 8
7 9
7 10
7 31
7 32
7 33
7 34
7 35
7 36
7 37
7 38
7 39
7 40
7 41
7 42
7 43
8 9
8 10
8 36
8 37
8 38
8 39
8 40
8 41
8 42
8 43
9 10
9 17
9 38
9 39
9 40
9 41
9 42
10 17
10 18
10 41
10 42
11 16
12 13
12 14
12 15
13 14
13 15
14 15
17 18
17 19
17 20
17 21
17 22
17 23
17 24
18 19
18 20
18 21
18 22
18 23
18 24
18 25
18 26
19 20
19 21
19 22
19 23
19 24
19 25
19 26
19 27
19 28
20 21
20 22
20 23
20 24
20 25
20 26
20 27
20 28
20 29
20 30
20 65
21 22
21 23
21 24
21 25
21 26
21 27
21 28
21 29
21 30
21 65
21 66
22 23
22 24
22 25
22 26
22 27
22 28
22 29
22 30
22 31
22 32
22 65
22 66
22 67
23 24
23 25
23 26
23 27
23 28
23 29
23 30
23 31
23 32
23 65
23 66
23 67
23 68
24 25
24 26
24 27
24 28
24 29
24 30
24 31
24 32
24 33
24 34
24 65
24 66
24 67
24 68
25 26
25 27
25 28
25 29
25 30
25 31
25 32
25 33
25 34
25 35
25 36
25 43
25 65
25 66
25 67
25 68
25 69
25 70
26 27
26 28
26 29
26 30
26 31
26 32
26 33
26 34
26 35
26 36
26 37
26 38
26 39
26 43
26 66
26 67
26 68
26 69
26 70
26 71
27 28
27 29
27 30
27 31
27 32
27 33
27 34
27 35
27 36
27 37
27 38
27 39
27 40
27 41
27 42
27 43
27 67
27 68
27 69
27 70
27 71
28 29
28 30
28 31
28 32
28 33
28 34
28 35
28 36
28 37
28 38
28 39
28 40
28 41
28 42
28 43
28 68
28 69
28 70
28 71
29 30
29 31
29 32
29 33
29 34
29 35
29 36
29 37
29 38
29 39
29 40
29 41
29 42
29 43
29 69
29 70
29 71
30 31
30 32
30 33
30 34
30 35
30 36
30 37
30 38
30 39
30 40
30 41
30 42
30 43
30 70
30 71
30 74
31 32
31 33
31 34
31 35
31 36
31 37
31 38
31 39
31 40
31 41
31 42
31 43
31 71
31 74
31 75
32 33
32 34
32 35
32 36
32 37
32 38
32 39
32 40
32 41
32 42
32 43
32 71
32 74
32 75
32 76
33 34
33 35
33 36
33 37
33 38
33 39
33 40
33 41
33 42
33 43
33 74
33 75
33 76
33 77
34 35
34 36
34 37
34 38
34 39
34 40
34 41
34 42
34 43
34 74
34 75
34 76
34 77
35 36
35 37
35 38
35 39
35 40
35 41
35 42
35 43
35 74
35 75
35 76
35 77
36 37
36 38
36 39
36 40
36 41
36 42
36 43
36 74
36 75
36 76
36 77
37 38
37 39
37 40
37 41
37 42
37 43
37 75
37 76
37 77
38 39
38 40
38 41
38 42
38 43
38 76
38 77
39 40
39 41
39 42
39 43
39 77
40 41
40 42
40 43
41 42
41 43
42 43
43 74
43 75
43 77
43 84
44 45
44 46
44 47
44 81
44 82
44 83
44 85
44 86
44 123
44 124
45 46
45 47
45 48
45 81
45 82
45 83
45 85
45 86
45 124
46 47
46 48
46 83
46 85
46 86
47 48
47 49
48 49
51 91
51 92
52 53
53 54
54 55
54 94
54 95
54 96
55 56
55 95
55 96
55 97
56 96
56 97
56 98
58 99
59 60
59 100
60 61
60 101
60 102
61 62
61 63
61 64
61 102
61 103
61 104
62 63
62 64
62 102
62 103
62 104
62 105
63 64
63 65
63 103
63 104
63 105
64 65
64 66
64 104
64 105
64 106
64 107
65 66
65 67
65 68
65 69
65 107
65 108
66 67
66 68
66 69
66 70
66 107
66 108
66 109
67 68
67 69
67 70
67 71
67 107
67 108
67 109
67 110
68 69
68 70
68 71
68 107
68 108
68 109
68 110
68 111
69 70
69 71
69 72
69 109
69 110
69 111
70 71
70 72
70 74
70 110
70 111
71 72
71 73
71 74
71 75
71 111
72 73
72 74
72 75
72 111
72 112
72 113
72 114
72 115
73 74
73 75
73 76
73 113
73 114
73 115
73 116
74 75
74 76
74 77
74 115
74 116
75 76
75 77
75 78
75 115
75 116
75 117
75 118
76 77
76 78
76 79
76 115
76 116
76 117
76 118
77 78
77 79
77 80
77 116
77 117
77 118
78 79
78 80
78 81
78 117
78 118
78 119
78 120
79 80
79 81
79 82
79 118
79 119
79 120
80 81
80 82
80 83
80 120
81 82
81 83
81 123
82 83
82 123
82 124
83 85
83 123
83 124
84 125
85 86
85 123
85 124
86 87
86 123
86 124
87 88
87 127
87 128
88 89
90 91
91 92
92 93
93 94
93 133
94 95
94 96
95 96
96 97
97 98
99 100
100 101
101 142
102 103
102 104
102 105
102 143
102 144
103 104
103 105
103 106
103 144
103 145
103 146
104 105
104 106
104 145
104 146
105 106
105 146
105 147
106 107
106 146
106 147
106 148
107 108
107 109
107 110
107 148
107 149
108 109
108 110
108 111
108 149
108 150
109 110
109 111
109 149
109 150
109 151
110 111
110 112
110 151
110 152
111 112
111 113
111 151
111 152
112 113
112 114
112 152
112 153
113 114
113 115
113 153
113 154
114 115
114 116
114 154
114 155
114 156
115 116
115 117
115 118
115 156
116 117
116 118
116 156
116 157
116 158
117 118
117 119
117 157
117 158
117 159
118 119
118 120
118 158
118 159
119 120
119 121
119 158
119 159
119 160
119 161
120 121
120 161
120 162
121 122
121 161
121 162
121 163
122 123
122 124
122 162
122 163
122 164
123 124
123 163
125 166
126 127
126 165
126 167
127 128
127 168
131 132
131 172
132 133
132 172
133 134
134 135
134 136
134 174
135 136
135 137
136 137
136 138
137 138
138 139
141 182
142 143
142 184
143 144
143 145
143 184
143 185
144 145
144 184
144 185
144 186
145 146
145 184
145 185
145 186
145 187
146 147
146 148
146 187
146 188
147 148
147 149
147 188
147 189
148 149
148 150
148 188
148 189
148 190
149 150
149 151
149 188
149 189
149 190
149 191
150 151
150 152
150 190
150 191
150 192
151 152
151 191
151 192
151 193
152 153
152 192
152 193
153 154
153 193
153 194
154 155
154 194
154 195
155 156
155 195
155 196
156 157
156 158
156 197
157 158
157 159
157 197
157 198
158 159
158 160
158 198
158 199
159 160
159 161
159 199
159 200
160 161
160 162
160 200
160 201
161 162
161 201
161 202
162 163
163 164
164 165
164 204
164 205
165 206
166 207
167 168
167 206
167 208
167 209
168 169
168 209
168 210
169 210
170 171
170 211
171 172
172 173
173 174
174 175
175 176
175 177
176 177
176 178
177 178
177 179
178 179
179 180
184 185
184 186
184 224
184 225
184 226
185 186
185 187
185 225
185 226
185 227
186 187
186 225
186 226
186 227
187 188
187 226
187 227
187 228
188 189
188 190
188 228
188 229
188 230
189 190
189 191
189 229
189 230
190 191
190 192
190 230
190 231
191 192
191 193
191 231
191 232
191 233
192 193
192 232
192 233
192 234
193 194
193 233
193 234
194 195
194 234
194 235
194 236
195 196
195 236
195 237
196 197
196 236
196 237
197 198
197 199
197 239
198 199
198 200
198 239
198 240
199 200
199 201
199 239
199 240
199 241
200 201
200 239
200 240
200 241
200 242
201 202
201 241
201 242
202 203
202 242
202 243
202 244
203 204
203 243
203 244
203 245
204 205
204 245
204 246
205 206
205 246
205 247
206 208
206 247
207 248
208 209
208 247
209 210
209 251
210 251
212 213
213 214
213 215
213 253
214 215
214 216
215 216
215 217
215 255
215 256
216 217
216 218
216 219
216 256
217 218
217 219
217 220
218 219
218 220
219 220
219 221
220 221
221 222
221 263
222 223
224 225
224 226
225 226
225 227
225 267
226 227
226 267
227 228
227 267
228 229
228 230
228 268
229 230
229 268
230 231
231 232
231 233
231 270
231 271
231 272
231 273
232 233
232 234
232 271
232 272
232 273
232 274
233 234
233 273
233 274
234 235
234 274
234 275
234 276
235 236
235 276
236 237
236 276
236 277
236 278
237 238
237 277
237 278
238 239
238 279
239 240
239 241
239 280
239 281
240 241
240 242
240 280
240 281
240 282
241 242
241 280
241 281
241 282
241 283
242 243
242 281
242 282
242 283
242 284
243 244
243 283
243 284
243 285
244 245
244 284
244 285
244 286
245 246
245 286
245 287
246 247
246 287
246 288
248 289
248 302
248 303
249 250
249 288
251 252
252 253
253 254
253 255
254 255
254 256
255 256
255 257
256 257
256 258
257 258
257 259
257 260
257 261
257 296
258 259
258 260
258 261
258 262
259 260
259 261
259 262
260 261
260 262
261 262
261 263
261 304
262 263
262 264
262 304
263 264
264 265
265 266
265 267
265 268
266 267
266 268
267 268
268 269
268 270
269 270
269 271
269 272
269 307
269 308
269 309
270 271
270 272
270 273
270 309
271 272
271 273
272 273
272 274
272 275
272 313
273 274
273 275
273 314
274 275
274 276
274 314
274 315
274 316
274 317
275 276
275 315
275 316
275 317
276 277
276 316
276 317
276 318
277 278
277 319
278 319
279 280
279 320
280 281
280 282
280 320
280 321
281 282
281 283
281 322
282 283
282 284
282 323
283 284
283 285
284 285
284 286
285 286
285 287
285 326
286 287
286 288
286 327
286 328
287 288
287 329
289 297
289 298
289 299
289 300
289 301
289 302
289 303
289 330
290 291
290 292
290 327
290 328
290 329
291 292
291 293
291 329
292 293
293 294
293 295
294 295
294 296
294 297
294 298
295 296
295 297
295 298
295 299
296 297
296 298
296 299
297 298
297 299
297 300
297 301
297 302
297 303
297 330
298 299
298 300
298 301
298 302
298 303
298 330
299 300
299 301
299 302
299 303
299 330
300 301
300 302
300 303
300 304
300 305
300 330
301 302
301 303
301 304
301 305
301 306
301 330
302 303
302 304
302 305
302 306
302 330
303 304
303 305
303 306
303 330
304 305
304 306
305 306
305 307
305 308
305 309
305 310
306 307
306 308
306 309
306 310
306 311
306 312
307 308
307 309
307 310
308 309
308 310
308 311
309 310
309 311
309 312
310 311
310 312
310 313
310 314
310 315
311 312
311 313
311 314
311 315
312 313
312 314
312 315
313 314
313 315
313 316
314 315
314 316
314 317
315 316
315 317
316 317
316 318
317 318
318 319
320 321
320 322
321 322
321 323
321 324
322 323
322 324
322 325
323 324
323 325
323 326
324 325
324 326
324 327
325 326
325 327
325 328
326 327
326 328
326 329
327 328
327 329
328 329
