cluster_editing/exact/simple_reductions/graphs/exact179.gr.metis
330 1370
2 3 4 5 6 7 8 9 21 22 23 24 25 26 27 28 29 30 31 32 33 34 35 36 37 38 39 40 41 42 43 
1 3 4 5 6 7 8 9 10 20 21 22 23 24 25 26 27 28 29 30 31 32 33 34 35 36 37 38 39 40 41 42 43 
1 2 4 5 6 7 8 9 10 28 29 30 31 32 33 34 35 36 37 38 39 40 41 42 43 
1 2 3 5 6 7 8 9 10 28 29 30 31 32 33 34 35 36 37 38 39 40 41 42 43 
1 2 3 4 6 7 8 9 10 29 30 31 32 33 34 35 36 37 38 39 40 41 42 43 
1 2 3 4 5 7 8 9 10 29 30 31 32 33 34 35 36 37 38 39 40 41 42 43 
1 2 3 4 5 6 8 9 10 31 32 33 34 35 36 37 38 39 40 41 42 43 
1 2 3 4 5 6 7 9 10 36 37 38 39 40 41 42 43 
1 2 3 4 5 6 7 8 10 17 38 39 40 41 42 
2 3 4 5 6 7 8 9 17 18 41 42 
16 
13 14 15 
12 14 15 
12 13 15 
12 13 14 
11 
9 10 18 19 20 21 22 23 24 
10 17 19 20 21 22 23 24 25 26 
17 18 20 21 22 23 24 25 26 27 28 
2 17 18 19 21 22 23 24 25 26 27 28 29 30 65 
1 2 17 18 19 20 22 23 24 25 26 27 28 29 30 65 66 
1 2 17 18 19 20 21 23 24 25 26 27 28 29 30 31 32 65 66 67 
1 2 17 18 19 20 21 22 24 25 26 27 28 29 30 31 32 65 66 67 68 
1 2 17 18 19 20 21 22 23 25 26 27 28 29 30 31 32 33 34 65 66 67 68 
1 2 18 19 20 21 22 23 24 26 27 28 29 30 31 32 33 34 35 36 43 65 66 67 68 69 70 
1 2 18 19 20 21 22 23 24 25 27 28 29 30 31 32 33 34 35 36 37 38 39 43 66 67 68 69 70 71 
1 2 19 20 21 22 23 24 25 26 28 29 30 31 32 33 34 35 36 37 38 39 40 41 42 43 67 68 69 70 71 
1 2 3 4 19 20 21 22 23 24 25 26 27 29 30 31 32 33 34 35 36 37 38 39 40 41 42 43 68 69 70 71 
1 2 3 4 5 6 20 21 22 23 24 25 26 27 28 30 31 32 33 34 35 36 37 38 39 40 41 42 43 69 70 71 
1 2 3 4 5 6 20 21 22 23 24 25 26 27 28 29 31 32 33 34 35 36 37 38 39 40 41 42 43 70 71 74 
1 2 3 4 5 6 7 22 23 24 25 26 27 28 29 30 32 33 34 35 36 37 38 39 40 41 42 43 71 74 75 
1 2 3 4 5 6 7 22 23 24 25 26 27 28 29 30 31 33 34 35 36 37 38 39 40 41 42 43 71 74 75 76 
1 2 3 4 5 6 7 24 25 26 27 28 29 30 31 32 34 35 36 37 38 39 40 41 42 43 74 75 76 77 
1 2 3 4 5 6 7 24 25 26 27 28 29 30 31 32 33 35 36 37 38 39 40 41 42 43 74 75 76 77 
1 2 3 4 5 6 7 25 26 27 28 29 30 31 32 33 34 36 37 38 39 40 41 42 43 74 75 76 77 
1 2 3 4 5 6 7 8 25 26 27 28 29 30 31 32 33 34 35 37 38 39 40 41 42 43 74 75 76 77 
1 2 3 4 5 6 7 8 26 27 28 29 30 31 32 33 34 35 36 38 39 40 41 42 43 75 76 77 
1 2 3 4 5 6 7 8 9 26 27 28 29 30 31 32 33 34 35 36 37 39 40 41 42 43 76 77 
1 2 3 4 5 6 7 8 9 26 27 28 29 30 31 32 33 34 35 36 37 38 40 41 42 43 77 
1 2 3 4 5 6 7 8 9 27 28 29 30 31 32 33 34 35 36 37 38 39 41 42 43 
1 2 3 4 5 6 7 8 9 10 27 28 29 30 31 32 33 34 35 36 37 38 39 40 42 43 
1 2 3 4 5 6 7 8 9 10 27 28 29 30 31 32 33 34 35 36 37 38 39 40 41 43 
1 2 3 4 5 6 7 8 25 26 27 28 29 30 31 32 33 34 35 36 37 38 39 40 41 42 74 75 77 84 
45 46 47 81 82 83 85 86 123 124 
44 46 47 48 81 82 83 85 86 124 
44 45 47 48 83 85 86 
44 45 46 48 49 
45 46 47 49 
47 48 

91 92 
53 
52 54 
53 55 94 95 96 
54 56 95 96 97 
55 96 97 98 

99 
60 100 
59 61 101 102 
60 62 63 64 102 103 104 
61 63 64 102 103 104 105 
61 62 64 65 103 104 105 
61 62 63 65 66 104 105 106 107 
20 21 22 23 24 25 63 64 66 67 68 69 107 108 
21 22 23 24 25 26 64 65 67 68 69 70 107 108 109 
22 23 24 25 26 27 65 66 68 69 70 71 107 108 109 110 
23 24 25 26 27 28 65 66 67 69 70 71 107 108 109 110 111 
25 26 27 28 29 65 66 67 68 70 71 72 109 110 111 
25 26 27 28 29 30 66 67 68 69 71 72 74 110 111 
26 27 28 29 30 31 32 67 68 69 70 72 73 74 75 111 
69 70 71 73 74 75 111 112 113 114 115 
71 72 74 75 76 113 114 115 116 
30 31 32 33 34 35 36 43 70 71 72 73 75 76 77 115 116 
31 32 33 34 35 36 37 43 71 72 73 74 76 77 78 115 116 117 118 
32 33 34 35 36 37 38 73 74 75 77 78 79 115 116 117 118 
33 34 35 36 37 38 39 43 74 75 76 78 79 80 116 117 118 
75 76 77 79 80 81 117 118 119 120 
76 77 78 80 81 82 118 119 120 
77 78 79 81 82 83 120 
44 45 78 79 80 82 83 123 
44 45 79 80 81 83 123 124 
44 45 46 80 81 82 85 123 124 
43 125 
44 45 46 83 86 123 124 
44 45 46 85 87 123 124 
86 88 127 128 
87 89 
88 
91 
51 90 92 
51 91 93 
92 94 133 
54 93 95 96 
54 55 94 96 
54 55 56 94 95 97 
55 56 96 98 
56 97 
58 100 
59 99 101 
60 100 142 
60 61 62 103 104 105 143 144 
61 62 63 102 104 105 106 144 145 146 
61 62 63 64 102 103 105 106 145 146 
62 63 64 102 103 104 106 146 147 
64 103 104 105 107 146 147 148 
64 65 66 67 68 106 108 109 110 148 149 
65 66 67 68 107 109 110 111 149 150 
66 67 68 69 107 108 110 111 149 150 151 
67 68 69 70 107 108 109 111 112 151 152 
68 69 70 71 72 108 109 110 112 113 151 152 
72 110 111 113 114 152 153 
72 73 111 112 114 115 153 154 
72 73 112 113 115 116 154 155 156 
72 73 74 75 76 113 114 116 117 118 156 
73 74 75 76 77 114 115 117 118 156 157 158 
75 76 77 78 115 116 118 119 157 158 159 
75 76 77 78 79 115 116 117 119 120 158 159 
78 79 117 118 120 121 158 159 160 161 
78 79 80 118 119 121 161 162 
119 120 122 161 162 163 
121 123 124 162 163 164 
44 81 82 83 85 86 122 124 163 
44 45 82 83 85 86 122 123 
84 166 
127 165 167 
87 126 128 168 
87 127 


132 172 
131 133 172 
93 132 134 
133 135 136 174 
134 136 137 
134 135 137 138 
135 136 138 
136 137 139 
138 

182 
101 143 184 
102 142 144 145 184 185 
102 103 143 145 184 185 186 
103 104 143 144 146 184 185 186 187 
103 104 105 106 145 147 148 187 188 
105 106 146 148 149 188 189 
106 107 146 147 149 150 188 189 190 
107 108 109 147 148 150 151 188 189 190 191 
108 109 148 149 151 152 190 191 192 
109 110 111 149 150 152 191 192 193 
110 111 112 150 151 153 192 193 
112 113 152 154 193 194 
113 114 153 155 194 195 
114 154 156 195 196 
114 115 116 155 157 158 197 
116 117 156 158 159 197 198 
116 117 118 119 156 157 159 160 198 199 
117 118 119 157 158 160 161 199 200 
119 158 159 161 162 200 201 
119 120 121 159 160 162 201 202 
120 121 122 160 161 163 
121 122 123 162 164 
122 163 165 204 205 
126 164 206 
125 207 
126 168 206 208 209 
127 167 169 209 210 
168 210 
171 211 
170 172 
131 132 171 173 
172 174 
134 173 175 
174 176 177 
175 177 178 
175 176 178 179 
176 177 179 
177 178 180 
179 

141 

142 143 144 145 185 186 224 225 226 
143 144 145 184 186 187 225 226 227 
144 145 184 185 187 225 226 227 
145 146 185 186 188 226 227 228 
146 147 148 149 187 189 190 228 229 230 
147 148 149 188 190 191 229 230 
148 149 150 188 189 191 192 230 231 
149 150 151 189 190 192 193 231 232 233 
150 151 152 190 191 193 232 233 234 
151 152 153 191 192 194 233 234 
153 154 193 195 234 235 236 
154 155 194 196 236 237 
155 195 197 236 237 
156 157 196 198 199 239 
157 158 197 199 200 239 240 
158 159 197 198 200 201 239 240 241 
159 160 198 199 201 239 240 241 242 
160 161 199 200 202 241 242 
161 201 203 242 243 244 
202 204 243 244 245 
164 203 205 245 246 
164 204 206 246 247 
165 167 205 208 247 
166 248 
167 206 209 247 
167 168 208 210 251 
168 169 209 251 
170 
213 
212 214 215 253 
213 215 216 
213 214 216 217 255 256 
214 215 217 218 219 256 
215 216 218 219 220 
216 217 219 220 
216 217 218 220 221 
217 218 219 221 
219 220 222 263 
221 223 
222 
184 225 226 
184 185 186 224 226 227 267 
184 185 186 187 224 225 227 267 
185 186 187 225 226 228 267 
187 188 227 229 230 268 
188 189 228 230 268 
188 189 190 228 229 231 
190 191 230 232 233 270 271 272 273 
191 192 231 233 234 271 272 273 274 
191 192 193 231 232 234 273 274 
192 193 194 232 233 235 274 275 276 
194 234 236 276 
194 195 196 235 237 276 277 278 
195 196 236 238 277 278 
237 239 279 
197 198 199 200 238 240 241 280 281 
198 199 200 239 241 242 280 281 282 
199 200 201 239 240 242 280 281 282 283 
200 201 202 240 241 243 281 282 283 284 
202 203 242 244 283 284 285 
202 203 243 245 284 285 286 
203 204 244 246 286 287 
204 205 245 247 287 288 
205 206 208 246 
207 289 302 303 
250 288 
249 
209 210 252 
251 253 
213 252 254 255 
253 255 256 
215 253 254 256 257 
215 216 254 255 257 258 
255 256 258 259 260 261 296 
256 257 259 260 261 262 
257 258 260 261 262 
257 258 259 261 262 
257 258 259 260 262 263 304 
258 259 260 261 263 264 304 
221 261 262 264 
262 263 265 
264 266 267 268 
265 267 268 
225 226 227 265 266 268 
228 229 265 266 267 269 270 
268 270 271 272 307 308 309 
231 268 269 271 272 273 309 
231 232 269 270 272 273 
231 232 269 270 271 273 274 275 313 
231 232 233 270 271 272 274 275 314 
232 233 234 272 273 275 276 314 315 316 317 
234 272 273 274 276 315 316 317 
234 235 236 274 275 277 316 317 318 
236 237 276 278 319 
236 237 277 319 
238 280 320 
239 240 241 279 281 282 320 321 
239 240 241 242 280 282 283 322 
240 241 242 280 281 283 284 323 
241 242 243 281 282 284 285 
242 243 244 282 283 285 286 
243 244 283 284 286 287 326 
244 245 284 285 287 288 327 328 
245 246 285 286 288 329 
246 249 286 287 
248 297 298 299 300 301 302 303 330 
291 292 327 328 329 
290 292 293 329 
290 291 293 
291 292 294 295 
293 295 296 297 298 
293 294 296 297 298 299 
257 294 295 297 298 299 
289 294 295 296 298 299 300 301 302 303 330 
289 294 295 296 297 299 300 301 302 303 330 
289 295 296 297 298 300 301 302 303 330 
289 297 298 299 301 302 303 304 305 330 
289 297 298 299 300 302 303 304 305 306 330 
248 289 297 298 299 300 301 303 304 305 306 330 
248 289 297 298 299 300 301 302 304 305 306 330 
261 262 300 301 302 303 305 306 
300 301 302 303 304 306 307 308 309 310 
301 302 303 304 305 307 308 309 310 311 312 
269 305 306 308 309 310 
269 305 306 307 309 310 311 
269 270 305 306 307 308 310 311 312 
305 306 307 308 309 311 312 313 314 315 
306 308 309 310 312 313 314 315 
306 309 310 311 313 314 315 
272 310 311 312 314 315 316 
273 274 310 311 312 313 315 316 317 
274 275 310 311 312 313 314 316 317 
274 275 276 313 314 315 317 318 
274 275 276 314 315 316 318 
276 316 317 319 
277 278 318 
279 280 321 322 
280 320 322 323 324 
281 320 321 323 324 325 
282 321 322 324 325 326 
321 322 323 325 326 327 
322 323 324 326 327 328 
285 323 324 325 327 328 329 
286 290 324 325 326 328 329 
286 290 325 326 327 329 
287 290 291 326 327 328 
289 297 298 299 300 301 302 303 
